certificates/rado_a5_c277_N55.cnf
c Rad2 upper bound instance: x1 + 5*x2 - x3 = 277, interval [1,55]
p cnf 55 616
1 3 55 0
-1 -3 -55 0
2 4 55 0
-2 -4 -55 0
3 5 55 0
-3 -5 -55 0
4 6 55 0
-4 -6 -55 0
5 7 55 0
-5 -7 -55 0
1 8 54 0
-1 -8 -54 0
6 8 55 0
-6 -8 -55 0
2 9 54 0
-2 -9 -54 0
7 9 55 0
-7 -9 -55 0
3 10 54 0
-3 -10 -54 0
8 10 55 0
-8 -10 -55 0
4 11 54 0
-4 -11 -54 0
9 11 55 0
-9 -11 -55 0
5 12 54 0
-5 -12 -54 0
10 12 55 0
-10 -12 -55 0
1 13 53 0
-1 -13 -53 0
6 13 54 0
-6 -13 -54 0
11 13 55 0
-11 -13 -55 0
2 14 53 0
-2 -14 -53 0
7 14 54 0
-7 -14 -54 0
12 14 55 0
-12 -14 -55 0
3 15 53 0
-3 -15 -53 0
8 15 54 0
-8 -15 -54 0
13 15 55 0
-13 -15 -55 0
4 16 53 0
-4 -16 -53 0
9 16 54 0
-9 -16 -54 0
14 16 55 0
-14 -16 -55 0
5 17 53 0
-5 -17 -53 0
10 17 54 0
-10 -17 -54 0
15 17 55 0
-15 -17 -55 0
1 18 52 0
-1 -18 -52 0
6 18 53 0
-6 -18 -53 0
11 18 54 0
-11 -18 -54 0
16 18 55 0
-16 -18 -55 0
2 19 52 0
-2 -19 -52 0
7 19 53 0
-7 -19 -53 0
12 19 54 0
-12 -19 -54 0
17 19 55 0
-17 -19 -55 0
3 20 52 0
-3 -20 -52 0
8 20 53 0
-8 -20 -53 0
13 20 54 0
-13 -20 -54 0
18 20 55 0
-18 -20 -55 0
4 21 52 0
-4 -21 -52 0
9 21 53 0
-9 -21 -53 0
14 21 54 0
-14 -21 -54 0
19 21 55 0
-19 -21 -55 0
5 22 52 0
-5 -22 -52 0
10 22 53 0
-10 -22 -53 0
15 22 54 0
-15 -22 -54 0
20 22 55 0
-20 -22 -55 0
1 23 51 0
-1 -23 -51 0
6 23 52 0
-6 -23 -52 0
11 23 53 0
-11 -23 -53 0
16 23 54 0
-16 -23 -54 0
21 23 55 0
-21 -23 -55 0
2 24 51 0
-2 -24 -51 0
7 24 52 0
-7 -24 -52 0
12 24 53 0
-12 -24 -53 0
17 24 54 0
-17 -24 -54 0
22 24 55 0
-22 -24 -55 0
3 25 51 0
-3 -25 -51 0
8 25 52 0
-8 -25 -52 0
13 25 53 0
-13 -25 -53 0
18 25 54 0
-18 -25 -54 0
23 25 55 0
-23 -25 -55 0
4 26 51 0
-4 -26 -51 0
9 26 52 0
-9 -26 -52 0
14 26 53 0
-14 -26 -53 0
19 26 54 0
-19 -26 -54 0
24 26 55 0
-24 -26 -55 0
5 27 51 0
-5 -27 -51 0
10 27 52 0
-10 -27 -52 0
15 27 53 0
-15 -27 -53 0
20 27 54 0
-20 -27 -54 0
25 27 55 0
-25 -27 -55 0
1 28 50 0
-1 -28 -50 0
6 28 51 0
-6 -28 -51 0
11 28 52 0
-11 -28 -52 0
16 28 53 0
-16 -28 -53 0
21 28 54 0
-21 -28 -54 0
26 28 55 0
-26 -28 -55 0
2 29 50 0
-2 -29 -50 0
7 29 51 0
-7 -29 -51 0
12 29 52 0
-12 -29 -52 0
17 29 53 0
-17 -29 -53 0
22 29 54 0
-22 -29 -54 0
27 29 55 0
-27 -29 -55 0
3 30 50 0
-3 -30 -50 0
8 30 51 0
-8 -30 -51 0
13 30 52 0
-13 -30 -52 0
18 30 53 0
-18 -30 -53 0
23 30 54 0
-23 -30 -54 0
28 30 55 0
-28 -30 -55 0
4 31 50 0
-4 -31 -50 0
9 31 51 0
-9 -31 -51 0
14 31 52 0
-14 -31 -52 0
19 31 53 0
-19 -31 -53 0
24 31 54 0
-24 -31 -54 0
29 31 55 0
-29 -31 -55 0
5 32 50 0
-5 -32 -50 0
10 32 51 0
-10 -32 -51 0
15 32 52 0
-15 -32 -52 0
20 32 53 0
-20 -32 -53 0
25 32 54 0
-25 -32 -54 0
30 32 55 0
-30 -32 -55 0
1 33 49 0
-1 -33 -49 0
6 33 50 0
-6 -33 -50 0
11 33 51 0
-11 -33 -51 0
16 33 52 0
-16 -33 -52 0
21 33 53 0
-21 -33 -53 0
26 33 54 0
-26 -33 -54 0
31 33 55 0
-31 -33 -55 0
2 34 49 0
-2 -34 -49 0
7 34 50 0
-7 -34 -50 0
12 34 51 0
-12 -34 -51 0
17 34 52 0
-17 -34 -52 0
22 34 53 0
-22 -34 -53 0
27 34 54 0
-27 -34 -54 0
32 34 55 0
-32 -34 -55 0
3 35 49 0
-3 -35 -49 0
8 35 50 0
-8 -35 -50 0
13 35 51 0
-13 -35 -51 0
18 35 52 0
-18 -35 -52 0
23 35 53 0
-23 -35 -53 0
28 35 54 0
-28 -35 -54 0
33 35 55 0
-33 -35 -55 0
4 36 49 0
-4 -36 -49 0
9 36 50 0
-9 -36 -50 0
14 36 51 0
-14 -36 -51 0
19 36 52 0
-19 -36 -52 0
24 36 53 0
-24 -36 -53 0
29 36 54 0
-29 -36 -54 0
34 36 55 0
-34 -36 -55 0
5 37 49 0
-5 -37 -49 0
10 37 50 0
-10 -37 -50 0
15 37 51 0
-15 -37 -51 0
20 37 52 0
-20 -37 -52 0
25 37 53 0
-25 -37 -53 0
30 37 54 0
-30 -37 -54 0
35 37 55 0
-35 -37 -55 0
1 38 48 0
-1 -38 -48 0
6 38 49 0
-6 -38 -49 0
11 38 50 0
-11 -38 -50 0
16 38 51 0
-16 -38 -51 0
21 38 52 0
-21 -38 -52 0
26 38 53 0
-26 -38 -53 0
31 38 54 0
-31 -38 -54 0
36 38 55 0
-36 -38 -55 0
2 39 48 0
-2 -39 -48 0
7 39 49 0
-7 -39 -49 0
12 39 50 0
-12 -39 -50 0
17 39 51 0
-17 -39 -51 0
22 39 52 0
-22 -39 -52 0
27 39 53 0
-27 -39 -53 0
32 39 54 0
-32 -39 -54 0
37 39 55 0
-37 -39 -55 0
3 40 48 0
-3 -40 -48 0
8 40 49 0
-8 -40 -49 0
13 40 50 0
-13 -40 -50 0
18 40 51 0
-18 -40 -51 0
23 40 52 0
-23 -40 -52 0
28 40 53 0
-28 -40 -53 0
33 40 54 0
-33 -40 -54 0
38 40 55 0
-38 -40 -55 0
4 41 48 0
-4 -41 -48 0
9 41 49 0
-9 -41 -49 0
14 41 50 0
-14 -41 -50 0
19 41 51 0
-19 -41 -51 0
24 41 52 0
-24 -41 -52 0
29 41 53 0
-29 -41 -53 0
34 41 54 0
-34 -41 -54 0
39 41 55 0
-39 -41 -55 0
5 42 48 0
-5 -42 -48 0
10 42 49 0
-10 -42 -49 0
15 42 50 0
-15 -42 -50 0
20 42 51 0
-20 -42 -51 0
25 42 52 0
-25 -42 -52 0
30 42 53 0
-30 -42 -53 0
35 42 54 0
-35 -42 -54 0
40 42 55 0
-40 -42 -55 0
1 43 47 0
-1 -43 -47 0
6 43 48 0
-6 -43 -48 0
11 43 49 0
-11 -43 -49 0
16 43 50 0
-16 -43 -50 0
21 43 51 0
-21 -43 -51 0
26 43 52 0
-26 -43 -52 0
31 43 53 0
-31 -43 -53 0
36 43 54 0
-36 -43 -54 0
41 43 55 0
-41 -43 -55 0
2 44 47 0
-2 -44 -47 0
7 44 48 0
-7 -44 -48 0
12 44 49 0
-12 -44 -49 0
17 44 50 0
-17 -44 -50 0
22 44 51 0
-22 -44 -51 0
27 44 52 0
-27 -44 -52 0
32 44 53 0
-32 -44 -53 0
37 44 54 0
-37 -44 -54 0
42 44 55 0
-42 -44 -55 0
3 45 47 0
-3 -45 -47 0
8 45 48 0
-8 -45 -48 0
13 45 49 0
-13 -45 -49 0
18 45 50 0
-18 -45 -50 0
23 45 51 0
-23 -45 -51 0
28 45 52 0
-28 -45 -52 0
33 45 53 0
-33 -45 -53 0
38 45 54 0
-38 -45 -54 0
43 45 55 0
-43 -45 -55 0
4 46 47 0
-4 -46 -47 0
9 46 48 0
-9 -46 -48 0
14 46 49 0
-14 -46 -49 0
19 46 50 0
-19 -46 -50 0
24 46 51 0
-24 -46 -51 0
29 46 52 0
-29 -46 -52 0
34 46 53 0
-34 -46 -53 0
39 46 54 0
-39 -46 -54 0
44 46 55 0
-44 -46 -55 0
5 47 0
-5 -47 0
10 47 48 0
-10 -47 -48 0
15 47 49 0
-15 -47 -49 0
20 47 50 0
-20 -47 -50 0
25 47 51 0
-25 -47 -51 0
30 47 52 0
-30 -47 -52 0
35 47 53 0
-35 -47 -53 0
40 47 54 0
-40 -47 -54 0
45 47 55 0
-45 -47 -55 0
1 46 48 0
-1 -46 -48 0
6 47 48 0
-6 -47 -48 0
11 48 0
-11 -48 0
16 48 49 0
-16 -48 -49 0
21 48 50 0
-21 -48 -50 0
26 48 51 0
-26 -48 -51 0
31 48 52 0
-31 -48 -52 0
36 48 53 0
-36 -48 -53 0
41 48 54 0
-41 -48 -54 0
46 48 55 0
-46 -48 -55 0
2 46 49 0
-2 -46 -49 0
7 47 49 0
-7 -47 -49 0
12 48 49 0
-12 -48 -49 0
17 49 0
-17 -49 0
22 49 50 0
-22 -49 -50 0
27 49 51 0
-27 -49 -51 0
32 49 52 0
-32 -49 -52 0
37 49 53 0
-37 -49 -53 0
42 49 54 0
-42 -49 -54 0
47 49 55 0
-47 -49 -55 0
3 46 50 0
-3 -46 -50 0
8 47 50 0
-8 -47 -50 0
13 48 50 0
-13 -48 -50 0
18 49 50 0
-18 -49 -50 0
23 50 0
-23 -50 0
28 50 51 0
-28 -50 -51 0
33 50 52 0
-33 -50 -52 0
38 50 53 0
-38 -50 -53 0
43 50 54 0
-43 -50 -54 0
48 50 55 0
-48 -50 -55 0
4 46 51 0
-4 -46 -51 0
9 47 51 0
-9 -47 -51 0
14 48 51 0
-14 -48 -51 0
19 49 51 0
-19 -49 -51 0
24 50 51 0
-24 -50 -51 0
29 51 0
-29 -51 0
34 51 52 0
-34 -51 -52 0
39 51 53 0
-39 -51 -53 0
44 51 54 0
-44 -51 -54 0
49 51 55 0
-49 -51 -55 0
5 46 52 0
-5 -46 -52 0
10 47 52 0
-10 -47 -52 0
15 48 52 0
-15 -48 -52 0
20 49 52 0
-20 -49 -52 0
25 50 52 0
-25 -50 -52 0
30 51 52 0
-30 -51 -52 0
35 52 0
-35 -52 0
40 52 53 0
-40 -52 -53 0
45 52 54 0
-45 -52 -54 0
50 52 55 0
-50 -52 -55 0
1 45 53 0
-1 -45 -53 0
6 46 53 0
-6 -46 -53 0
11 47 53 0
-11 -47 -53 0
16 48 53 0
-16 -48 -53 0
21 49 53 0
-21 -49 -53 0
26 50 53 0
-26 -50 -53 0
31 51 53 0
-31 -51 -53 0
36 52 53 0
-36 -52 -53 0
41 53 0
-41 -53 0
46 53 54 0
-46 -53 -54 0
51 53 55 0
-51 -53 -55 0
2 45 54 0
-2 -45 -54 0
7 46 54 0
-7 -46 -54 0
12 47 54 0
-12 -47 -54 0
17 48 54 0
-17 -48 -54 0
22 49 54 0
-22 -49 -54 0
27 50 54 0
-27 -50 -54 0
32 51 54 0
-32 -51 -54 0
37 52 54 0
-37 -52 -54 0
42 53 54 0
-42 -53 -54 0
47 54 0
-47 -54 0
52 54 55 0
-52 -54 -55 0
3 45 55 0
-3 -45 -55 0
8 46 55 0
-8 -46 -55 0
13 47 55 0
-13 -47 -55 0
18 48 55 0
-18 -48 -55 0
23 49 55 0
-23 -49 -55 0
28 50 55 0
-28 -50 -55 0
33 51 55 0
-33 -51 -55 0
38 52 55 0
-38 -52 -55 0
43 53 55 0
-43 -53 -55 0
48 54 55 0
-48 -54 -55 0
53 55 0
-53 -55 0
