certificates/rado_a5_c277_N55.drat
-55 0
53 0
-41 0
39 0
43 0
-27 0
-51 0
-31 0
5 0
25 0
29 0
49 0
33 0
19 0
9 0
-17 0
-37 0
-47 0
-13 0
-21 0
-7 0
-11 0
-1 0
-45 0
15 0
35 0
0
